projected/problems_b25_r0_d7_m100_s666/_DIMACS/b25_d7_r0_s666_084.cnf
p cnf 258 448 25
c p show 1 2 3 4 5 6 7 8 9 10 11 12 13 14 15 16 17 18 19 20 21 22 23 24 25
-30 22 -13 0
-31 17 0
-31 -13 0
-32 31 30 0
-33 -17 13 0
-34 -22 0
-34 13 0
-35 34 33 0
-36 35 0
-36 32 0
-37 25 -19 0
-38 19 -25 0
-39 38 0
-39 37 0
-40 3 -19 0
-41 40 0
-41 39 0
-42 -3 0
-42 19 0
-43 -25 0
-43 19 0
-44 -19 0
-44 25 0
-45 44 43 0
-46 45 0
-46 42 0
-47 46 41 0
-48 47 36 0
-49 -5 21 0
-50 14 0
-50 4 0
-51 50 0
-51 49 0
-52 -20 0
-52 -8 0
-53 -21 0
-53 10 0
-54 53 52 0
-55 54 51 0
-56 55 48 0
-57 -11 0
-57 23 0
-58 -15 4 0
-59 58 0
-59 57 0
-60 -5 -24 0
-61 -18 12 0
-62 61 60 0
-63 62 0
-63 59 0
-64 -16 0
-64 -9 0
-65 19 -11 0
-66 65 64 0
-67 -6 23 0
-68 7 0
-68 13 0
-69 68 0
-69 67 0
-70 69 0
-70 66 0
-71 70 63 0
-72 71 0
-72 56 0
-73 -7 0
-73 10 0
-74 1 0
-74 2 0
-75 74 73 0
-76 3 16 0
-77 25 -18 0
-78 77 76 0
-79 78 75 0
-80 -2 25 0
-81 10 16 0
-82 81 80 0
-83 -9 0
-83 -13 0
-84 11 -3 0
-85 84 83 0
-86 85 0
-86 82 0
-87 9 13 0
-88 -11 0
-88 3 0
-89 88 0
-89 87 0
-90 2 0
-90 -25 0
-91 -10 0
-91 -16 0
-92 91 0
-92 90 0
-93 92 0
-93 89 0
-94 93 86 0
-95 94 79 0
-96 89 92 0
-97 82 85 0
-98 97 0
-98 96 0
-99 7 -10 0
-100 -1 -2 0
-101 100 0
-101 99 0
-102 -3 0
-102 -16 0
-103 -25 0
-103 18 0
-104 103 0
-104 102 0
-105 104 0
-105 101 0
-106 105 98 0
-107 106 0
-107 95 0
-108 9 0
-108 4 0
-109 -4 0
-109 -9 0
-110 109 108 0
-111 18 3 0
-112 111 0
-112 110 0
-113 -22 0
-113 -3 0
-114 13 0
-114 -1 0
-115 114 113 0
-116 115 0
-116 112 0
-117 -1 0
-117 4 0
-118 -25 -24 0
-119 118 117 0
-120 -3 -24 0
-121 -10 10 0
-122 121 0
-122 120 0
-123 122 119 0
-124 123 0
-124 116 0
-125 1 -4 0
-126 25 0
-126 24 0
-127 126 0
-127 125 0
-128 3 0
-128 24 0
-129 10 0
-129 -10 0
-130 129 128 0
-131 130 0
-131 127 0
-132 -9 -4 0
-133 4 9 0
-134 133 0
-134 132 0
-135 -18 0
-135 -3 0
-136 135 134 0
-137 22 3 0
-138 -13 1 0
-139 138 0
-139 137 0
-140 139 136 0
-141 140 0
-141 131 0
-142 141 124 0
-143 142 107 0
-144 143 0
-144 72 0
-145 -8 0
-145 -17 0
-146 23 0
-146 -4 0
-147 146 145 0
-148 -23 0
-149 20 0
-149 7 0
-150 149 0
-150 148 0
-151 150 147 0
-152 -10 0
-152 22 0
-153 -21 4 0
-154 153 152 0
-155 21 1 0
-156 -24 7 0
-157 156 155 0
-158 157 0
-158 154 0
-159 158 0
-159 151 0
-160 -12 7 0
-161 12 14 0
-162 -14 -12 0
-163 162 0
-163 161 0
-164 163 160 0
-165 24 2 0
-166 -2 -24 0
-167 166 0
-167 165 0
-168 9 4 0
-169 168 0
-169 167 0
-170 169 0
-170 164 0
-171 -17 10 0
-172 -20 0
-172 21 0
-173 172 171 0
-174 -4 -9 0
-175 1 22 0
-176 175 0
-176 174 0
-177 176 0
-177 173 0
-178 4 0
-178 9 0
-179 -1 0
-179 -22 0
-180 179 178 0
-181 17 0
-181 -10 0
-182 20 -21 0
-183 182 0
-183 181 0
-184 183 0
-184 180 0
-185 184 177 0
-186 185 170 0
-187 186 159 0
-188 8 14 0
-189 -1 -13 0
-190 189 0
-190 188 0
-191 -17 0
-191 -10 0
-192 -3 0
-192 -8 0
-193 192 191 0
-194 3 8 0
-195 17 10 0
-196 195 194 0
-197 196 0
-197 193 0
-198 197 0
-198 190 0
-199 18 0
-199 -8 0
-200 -21 0
-200 -17 0
-201 200 199 0
-202 21 17 0
-203 -18 8 0
-204 203 202 0
-205 204 0
-205 201 0
-206 -24 -19 0
-207 -7 2 0
-208 207 0
-208 206 0
-209 208 205 0
-210 209 0
-210 198 0
-211 -4 0
-211 -14 0
-212 50 211 0
-213 -12 0
-213 11 0
-214 213 0
-214 212 0
-215 -20 0
-215 -3 0
-216 -7 14 0
-217 216 215 0
-218 217 0
-218 214 0
-219 22 16 0
-220 -17 0
-220 18 0
-221 220 219 0
-222 13 20 0
-223 -17 0
-223 20 0
-224 223 0
-224 222 0
-225 224 221 0
-226 225 218 0
-227 226 0
-227 210 0
-228 4 14 0
-229 -14 -4 0
-230 229 0
-230 228 0
-231 12 -11 0
-232 231 230 0
-233 20 3 0
-234 7 0
-234 -14 0
-235 234 0
-235 233 0
-236 235 232 0
-237 -22 0
-237 -16 0
-238 17 -18 0
-239 238 0
-239 237 0
-240 -13 0
-240 -20 0
-241 17 -20 0
-242 241 240 0
-243 242 0
-243 239 0
-244 243 0
-244 236 0
-245 -8 0
-245 -14 0
-246 1 0
-246 13 0
-247 246 245 0
-248 194 0
-248 195 0
-249 191 0
-249 192 0
-250 249 248 0
-251 250 247 0
-253 202 0
-253 203 0
-254 199 0
-254 200 0
-255 254 253 0
-256 24 0
-256 19 0
-257 7 0
-257 -2 0
-26 257 256 0
-27 26 0
-27 255 0
-252 27 251 0
-258 252 0
-258 244 0
-29 258 227 0
-28 29 187 0
28 144 0
-33 -31 0
-34 -30 0
-30 -34 0
-42 -40 0
-40 -42 0
-39 -45 0
-45 -39 0
-83 -87 0
-87 -83 0
-88 -84 0
-89 -85 0
-85 -89 0
-80 -90 0
-90 -80 0
-91 -81 0
-92 -82 0
-98 -94 0
-73 -99 0
-74 -100 0
-75 -101 0
-76 -102 0
-102 -76 0
-103 -77 0
-104 -78 0
-78 -104 0
-79 -105 0
-125 -117 0
-117 -125 0
-126 -118 0
-118 -126 0
-119 -127 0
-127 -119 0
-120 -128 0
-129 -121 0
-121 -129 0
-122 -130 0
-130 -122 0
-131 -123 0
-123 -131 0
-134 -110 0
-111 -135 0
-135 -111 0
-136 -112 0
-137 -113 0
-114 -138 0
-138 -114 0
-139 -115 0
-140 -116 0
-174 -178 0
-175 -179 0
-176 -180 0
-181 -171 0
-172 -182 0
-182 -172 0
-183 -173 0
-230 -212 0
-212 -230 0
-213 -231 0
-214 -232 0
-232 -214 0
-215 -233 0
-216 -234 0
-217 -235 0
-235 -217 0
-236 -218 0
-219 -237 0
-238 -220 0
-220 -238 0
-221 -239 0
-239 -221 0
-222 -240 0
-241 -223 0
-223 -241 0
-224 -242 0
-242 -224 0
-243 -225 0
-244 -226 0
-226 -244 0
-188 -245 0
-245 -188 0
-189 -246 0
-246 -189 0
-247 -190 0
-190 -247 0
-192 -194 0
-194 -192 0
-191 -195 0
-197 -250 0
-198 -251 0
-251 -198 0
-202 -200 0
-199 -203 0
-205 -255 0
-255 -205 0
-206 -256 0
-257 -207 0
-207 -257 0
-208 -26 0
-26 -208 0
-27 -209 0
-252 -210 0
