projected/problems_b25_r0_d7_m100_s666/b25_d7_r0_s666_084.smt2
(set-logic QF_UF)
(declare-fun A0 () Bool)
(declare-fun A1 () Bool)
(declare-fun A2 () Bool)
(declare-fun A3 () Bool)
(declare-fun A4 () Bool)
(declare-fun A5 () Bool)
(declare-fun A6 () Bool)
(declare-fun A7 () Bool)
(declare-fun A8 () Bool)
(declare-fun A9 () Bool)
(declare-fun A10 () Bool)
(declare-fun A11 () Bool)
(declare-fun A12 () Bool)
(declare-fun A13 () Bool)
(declare-fun A14 () Bool)
(declare-fun A15 () Bool)
(declare-fun A16 () Bool)
(declare-fun A17 () Bool)
(declare-fun A18 () Bool)
(declare-fun A19 () Bool)
(declare-fun A20 () Bool)
(declare-fun A21 () Bool)
(declare-fun A22 () Bool)
(declare-fun A23 () Bool)
(declare-fun A24 () Bool)
(assert (let ((.def_0 (not A16))) (let ((.def_1 (or .def_0 A12))) (let ((.def_2 (not A21))) (let ((.def_3 (and .def_2 A12))) (let ((.def_4 (not .def_3))) (let ((.def_5 (= .def_4 .def_1))) (let ((.def_6 (not .def_5))) (let ((.def_7 (not A2))) (let ((.def_8 (and .def_7 A18))) (let ((.def_9 (not .def_8))) (let ((.def_10 (not A24))) (let ((.def_11 (not A18))) (let ((.def_12 (= .def_11 .def_10))) (let ((.def_13 (not .def_12))) (let ((.def_14 (= .def_13 .def_9))) (let ((.def_15 (and .def_14 .def_6))) (let ((.def_16 (not .def_15))) (let ((.def_17 (not A4))) (let ((.def_18 (or .def_17 A20))) (let ((.def_19 (not .def_18))) (let ((.def_20 (not A3))) (let ((.def_21 (not A13))) (let ((.def_22 (or .def_21 .def_20))) (let ((.def_23 (or .def_22 .def_19))) (let ((.def_24 (or A19 A7))) (let ((.def_25 (not .def_24))) (let ((.def_26 (not A20))) (let ((.def_27 (and .def_26 A9))) (let ((.def_28 (or .def_27 .def_25))) (let ((.def_29 (not .def_28))) (let ((.def_30 (and .def_29 .def_23))) (let ((.def_31 (not .def_30))) (let ((.def_32 (or .def_31 .def_16))) (let ((.def_33 (not .def_32))) (let ((.def_34 (not A10))) (let ((.def_35 (and .def_34 A22))) (let ((.def_36 (and A14 .def_20))) (let ((.def_37 (not .def_36))) (let ((.def_38 (and .def_37 .def_35))) (let ((.def_39 (not .def_38))) (let ((.def_40 (and A4 A23))) (let ((.def_41 (not .def_40))) (let ((.def_42 (not A17))) (let ((.def_43 (or .def_42 A11))) (let ((.def_44 (or .def_43 .def_41))) (let ((.def_45 (not .def_44))) (let ((.def_46 (or .def_45 .def_39))) (let ((.def_47 (or A15 A8))) (let ((.def_48 (and .def_11 A10))) (let ((.def_49 (and .def_48 .def_47))) (let ((.def_50 (not A22))) (let ((.def_51 (and A5 .def_50))) (let ((.def_52 (not A12))) (let ((.def_53 (not A6))) (let ((.def_54 (or .def_53 .def_52))) (let ((.def_55 (or .def_54 .def_51))) (let ((.def_56 (or .def_55 .def_49))) (let ((.def_57 (and .def_56 .def_46))) (let ((.def_58 (or .def_57 .def_33))) (let ((.def_59 (not .def_58))) (let ((.def_60 (not A8))) (let ((.def_61 (and .def_60 .def_52))) (let ((.def_62 (not .def_61))) (let ((.def_63 (and .def_34 A2))) (let ((.def_64 (and .def_63 .def_62))) (let ((.def_65 (not .def_64))) (let ((.def_66 (not A1))) (let ((.def_67 (or .def_66 A24))) (let ((.def_68 (not .def_67))) (let ((.def_69 (not A15))) (let ((.def_70 (not A9))) (let ((.def_71 (and .def_70 .def_69))) (let ((.def_72 (and .def_71 .def_68))) (let ((.def_73 (= .def_72 .def_65))) (let ((.def_74 (and .def_53 A9))) (let ((.def_75 (and A0 A1))) (let ((.def_76 (or .def_75 .def_74))) (let ((.def_77 (or A2 A15))) (let ((.def_78 (not .def_77))) (let ((.def_79 (and .def_10 A17))) (let ((.def_80 (and .def_79 .def_78))) (let ((.def_81 (not .def_80))) (let ((.def_82 (or .def_81 .def_76))) (let ((.def_83 (= .def_82 .def_73))) (let ((.def_84 (not .def_83))) (let ((.def_85 (or A0 .def_20))) (let ((.def_86 (not .def_85))) (let ((.def_87 (and A24 A23))) (let ((.def_88 (not .def_87))) (let ((.def_89 (or .def_88 .def_86))) (let ((.def_90 (not .def_89))) (let ((.def_91 (not A23))) (let ((.def_92 (or .def_7 .def_91))) (let ((.def_93 (and A9 .def_70))) (let ((.def_94 (not .def_93))) (let ((.def_95 (and .def_94 .def_92))) (let ((.def_96 (not .def_95))) (let ((.def_97 (and .def_96 .def_90))) (let ((.def_98 (not .def_97))) (let ((.def_99 (= .def_20 A8))) (let ((.def_100 (or A17 A2))) (let ((.def_101 (not .def_100))) (let ((.def_102 (or .def_101 .def_99))) (let ((.def_103 (or A21 A2))) (let ((.def_104 (not A0))) (let ((.def_105 (and A12 .def_104))) (let ((.def_106 (not .def_105))) (let ((.def_107 (and .def_106 .def_103))) (let ((.def_108 (or .def_107 .def_102))) (let ((.def_109 (= .def_108 .def_98))) (let ((.def_110 (and .def_109 .def_84))) (let ((.def_111 (not .def_110))) (let ((.def_112 (and .def_111 .def_59))) (let ((.def_113 (not .def_112))) (let ((.def_114 (or A7 A16))) (let ((.def_115 (and A22 .def_20))) (let ((.def_116 (not .def_115))) (let ((.def_117 (and .def_116 .def_114))) (let ((.def_118 (and .def_50 .def_50))) (let ((.def_119 (not .def_118))) (let ((.def_120 (not A19))) (let ((.def_121 (or .def_120 .def_53))) (let ((.def_122 (or .def_121 .def_119))) (let ((.def_123 (and .def_122 .def_117))) (let ((.def_124 (not .def_123))) (let ((.def_125 (and .def_70 A21))) (let ((.def_126 (not .def_125))) (let ((.def_127 (or .def_26 A3))) (let ((.def_128 (not .def_127))) (let ((.def_129 (and .def_128 .def_126))) (let ((.def_130 (or A20 A0))) (let ((.def_131 (not .def_130))) (let ((.def_132 (and A23 .def_53))) (let ((.def_133 (and .def_132 .def_131))) (let ((.def_134 (or .def_133 .def_129))) (let ((.def_135 (not .def_134))) (let ((.def_136 (and .def_135 .def_124))) (let ((.def_137 (not A11))) (let ((.def_138 (or .def_137 A6))) (let ((.def_139 (not .def_138))) (let ((.def_140 (= A13 .def_137))) (let ((.def_141 (not .def_140))) (let ((.def_142 (and .def_141 .def_139))) (let ((.def_143 (= A1 .def_91))) (let ((.def_144 (and .def_60 .def_20))) (let ((.def_145 (not .def_144))) (let ((.def_146 (and .def_145 .def_143))) (let ((.def_147 (not .def_146))) (let ((.def_148 (or .def_147 .def_142))) (let ((.def_149 (or .def_20 .def_60))) (let ((.def_150 (or A0 A21))) (let ((.def_151 (and .def_150 .def_149))) (let ((.def_152 (and A16 .def_70))) (let ((.def_153 (and .def_120 A20))) (let ((.def_154 (not .def_153))) (let ((.def_155 (and .def_154 .def_152))) (let ((.def_156 (= .def_155 .def_151))) (let ((.def_157 (and .def_156 .def_148))) (let ((.def_158 (not .def_157))) (let ((.def_159 (or .def_158 .def_136))) (let ((.def_160 (= A13 .def_20))) (let ((.def_161 (not .def_160))) (let ((.def_162 (and .def_137 A10))) (let ((.def_163 (and .def_162 .def_161))) (let ((.def_164 (not .def_163))) (let ((.def_165 (and .def_120 .def_7))) (let ((.def_166 (or .def_53 A13))) (let ((.def_167 (or .def_166 .def_165))) (let ((.def_168 (not .def_167))) (let ((.def_169 (or .def_168 .def_164))) (let ((.def_170 (or A21 A15))) (let ((.def_171 (or A16 .def_42))) (let ((.def_172 (not .def_171))) (let ((.def_173 (or .def_172 .def_170))) (let ((.def_174 (not .def_173))) (let ((.def_175 (or A12 A19))) (let ((.def_176 (or A16 .def_120))) (let ((.def_177 (not .def_176))) (let ((.def_178 (and .def_177 .def_175))) (let ((.def_179 (not .def_178))) (let ((.def_180 (and .def_179 .def_174))) (let ((.def_181 (and .def_180 .def_169))) (let ((.def_182 (not .def_181))) (let ((.def_183 (or A7 A13))) (let ((.def_184 (not .def_183))) (let ((.def_185 (or .def_104 .def_52))) (let ((.def_186 (not .def_185))) (let ((.def_187 (or .def_186 .def_184))) (let ((.def_188 (not .def_187))) (let ((.def_189 (not A7))) (let ((.def_190 (and .def_7 .def_189))) (let ((.def_191 (not .def_190))) (let ((.def_192 (and .def_0 .def_70))) (let ((.def_193 (= .def_192 .def_191))) (let ((.def_194 (and .def_193 .def_188))) (let ((.def_195 (not .def_194))) (let ((.def_196 (or A20 A16))) (let ((.def_197 (and A17 .def_189))) (let ((.def_198 (= .def_197 .def_196))) (let ((.def_199 (not .def_198))) (let ((.def_200 (or .def_91 .def_11))) (let ((.def_201 (and A6 .def_66))) (let ((.def_202 (not .def_201))) (let ((.def_203 (and .def_202 .def_200))) (let ((.def_204 (not .def_203))) (let ((.def_205 (and .def_204 .def_199))) (let ((.def_206 (or .def_205 .def_195))) (let ((.def_207 (= .def_206 .def_182))) (let ((.def_208 (not .def_207))) (let ((.def_209 (or .def_208 .def_159))) (let ((.def_210 (not .def_209))) (let ((.def_211 (and .def_210 .def_113))) (let ((.def_212 (not .def_211))) .def_212))))))))))))))))))))))))))))))))))))))))))))))))))))))))))))))))))))))))))))))))))))))))))))))))))))))))))))))))))))))))))))))))))))))))))))))))))))))))))))))))))))))))))))))))))))))))))))))))))))))))))))))))))))))
(check-sat)
